
## tournament_2 ##

# Parametri

param num_teams = 6; 				#numero di squadre 
set Teams := A, B, C, D, E, F;


param interest:						#livello di interesse tra ogni match 
	A	B	C	D   E   F:=
A	0	2	2	3	1	3
B	2	0	1	3	3	1	
C	2	1	0	3	1	3
D	3	3	3	0	2	1
E	1	3	1	2	0	3
F	3	1	3	1	3	0;


#param interest:						#livello di interesse tra ogni match 
#	A	B	C	D   E   F:=
#A	0	3	1	2	1	2
#B	3	0	3	2	3	2	
#C  1	3	0	2	2	3
#D	2	2	2	0	3	1
#E	1	3	2	3	0	2
#F	2	2	3	1	2	0;

